num_clientes = 3;
num_dias = 12;
num_plantas = 3;
min_porcent_demanda = 65;
reg_alto_dias = 1;
reg_alto_porcent = 95;
costo = [52, 25, 33]
capacidad = [1130, 370, 620];
pago = [62, 60, 58];
demanda = [| 700,  710, 720
          | 705,  715, 725
          | 710,  720, 730
          | 715,  725, 735
          | 720,  730, 740
          | 725,  735, 745
          | 730,  740, 750
          | 735,  745, 755
          | 740,  750, 760
          | 745,  755, 765
          | 750,  760, 770
          | 755,  765, 775 |];
